c Random generated cnf formula, satisfiable: true
p cnf 10 50
8 -7 -4 0
-4 5 7 0
5 -3 -7 0
-1 -6 2 0
9 -3 -10 0
7 3 -6 0
-4 7 -9 0
4 -1 -2 0
-2 9 6 0
1 8 -9 0
-6 -4 8 0
2 3 7 0
-6 4 3 0
10 -5 -7 0
-1 3 8 0
9 -8 1 0
-6 -3 7 0
9 -3 7 0
-9 7 -5 0
-5 8 2 0
3 2 10 0
-10 -3 6 0
-7 -6 -5 0
-6 -10 -2 0
5 -4 3 0
1 -9 7 0
-8 7 -5 0
-3 -1 10 0
-8 3 9 0
-6 -8 5 0
-7 9 -10 0
5 4 9 0
-8 -3 -1 0
2 -3 -4 0
-9 -7 10 0
5 2 -9 0
10 6 4 0
5 4 9 0
-7 3 -6 0
1 -6 -10 0
-6 -8 9 0
10 -7 -1 0
10 9 -7 0
-7 5 -1 0
3 8 -1 0
1 -8 6 0
6 -8 7 0
-9 -4 -10 0
-8 -7 5 0
-7 6 10 0
